data;


param FN:= 8;
param D:= 100;
param U_Original:=
         1         1        4.942199e-01
         2         1        6.946654e-02
         3         1        3.885166e-01
         4         1       -2.954423e+00
         5         1       -1.504132e+00
         6         1       -3.044571e-01
         7         1       -7.616059e-01
         8         1       -8.016729e-01
         9         1       -9.171194e-02
        10         1       -6.066403e-01
        11         1        6.518407e-01
        12         1       -1.068796e+00
        13         1        3.695268e-01
        14         1       -7.782584e-01
        15         1       -5.428084e-01
        16         1        1.158616e+00
        17         1        1.322649e+00
        18         1       -1.725793e-01
        19         1       -7.224495e-03
        20         1        1.018009e-01
        21         1        1.406262e+00
        22         1        6.865212e-01
        23         1        2.308235e+00
        24         1       -6.998649e-01
        25         1       -1.090752e+00
        26         1        1.227518e+00
        27         1        5.107024e-01
        28         1       -4.689897e-01
        29         1       -1.107993e+00
        30         1       -6.267092e-01
        31         1        6.648128e-01
        32         1        1.854607e-01
        33         1       -1.023544e+00
        34         1       -4.118051e-01
        35         1        2.380116e-01
        36         1        6.471330e-02
        37         1        4.783846e-01
        38         1        1.687771e+00
        39         1       -1.352429e+00
        40         1        3.619813e-01
        41         1        5.557267e-01
        42         1       -2.018898e-01
        43         1       -1.398897e+00
        44         1       -1.023093e+00
        45         1       -7.969881e-01
        46         1       -3.934900e-01
        47         1       -3.645139e-01
        48         1       -1.418184e-01
        49         1       -2.557572e+00
        50         1        1.238049e+00
        51         1       -1.200506e+00
        52         1       -7.022996e-01
        53         1       -1.421055e+00
        54         1       -5.604036e-01
        55         1        7.948308e-01
        56         1        1.994846e-02
        57         1       -3.067123e-01
        58         1        5.797277e-01
        59         1       -3.582140e-02
        60         1        1.732062e+00
        61         1        8.122753e-02
        62         1        1.106986e+00
        63         1       -4.212194e-02
        64         1       -1.636492e+00
        65         1       -2.338174e-01
        66         1        6.742129e-01
        67         1       -5.916365e-01
        68         1        3.553112e-01
        69         1        1.484364e+00
        70         1        2.761938e-01
        71         1        1.128114e-01
        72         1       -1.114466e+00
        73         1        2.912355e-01
        74         1       -6.318028e-01
        75         1        1.409744e+00
        76         1        1.005464e+00
        77         1        1.366164e-01
        78         1       -1.072572e+00
        79         1        1.692703e-01
        80         1        4.436920e-01
        81         1       -2.060534e+00
        82         1        5.897957e-02
        83         1       -7.756356e-01
        84         1        8.532363e-02
        85         1        4.537916e-01
        86         1       -2.522300e-01
        87         1        1.000080e-01
        88         1       -1.744377e-01
        89         1       -2.138488e+00
        90         1        1.152646e+00
        91         1       -2.268967e-01
        92         1       -1.176012e-01
        93         1       -9.903120e-01
        94         1        6.798566e-01
        95         1        1.098827e+00
        96         1       -2.153013e+00
        97         1       -2.458835e-01
        98         1       -2.957306e-01
        99         1        5.203235e-01
       100         1       -1.567080e+00
         1         2       -7.195374e-02
         2         2        1.731017e+00
         3         2        1.531834e+00
         4         2       -3.308579e-01
         5         2       -1.675706e+00
         6         2        1.599308e+00
         7         2        1.724131e-01
         8         2       -5.054160e-02
         9         2       -5.860694e-01
        10         2        8.962315e-03
        11         2       -4.755354e-02
        12         2        2.481643e-01
        13         2       -2.953892e-01
        14         2       -8.498492e-02
        15         2       -1.833903e-01
        16         2       -2.179623e+00
        17         2        1.641941e+00
        18         2       -7.748984e-01
        19         2       -2.724219e-01
        20         2        5.242536e-01
        21         2        9.161199e-01
        22         2        1.520346e-01
        23         2        1.964663e+00
        24         2        1.875369e+00
        25         2       -1.769883e+00
        26         2       -6.700027e-01
        27         2       -5.052495e-01
        28         2        1.998813e+00
        29         2       -7.082493e-01
        30         2       -2.435678e-01
        31         2        1.248941e-01
        32         2        1.116491e+00
        33         2       -8.235364e-01
        34         2        1.674065e+00
        35         2        1.057438e+00
        36         2       -2.768811e-01
        37         2       -2.548659e-01
        38         2       -1.257094e+00
        39         2        2.162092e+00
        40         2       -6.902870e-01
        41         2        9.348801e-01
        42         2        7.839084e-01
        43         2       -5.662229e-01
        44         2        8.514239e-01
        45         2       -4.731725e-01
        46         2        3.586669e-01
        47         2       -3.772397e-01
        48         2        1.110482e+00
        49         2        3.404369e-01
        50         2        1.027330e+00
        51         2        9.341484e-01
        52         2       -9.118079e-01
        53         2        8.014893e-01
        54         2       -7.299437e-01
        55         2       -1.377230e-01
        56         2       -1.686356e+00
        57         2        7.849869e-01
        58         2        5.952927e-03
        59         2       -1.861384e+00
        60         2       -1.197442e+00
        61         2        2.307506e-01
        62         2        1.254201e+00
        63         2        9.236385e-01
        64         2       -6.318227e-01
        65         2        7.190225e-01
        66         2        1.240877e+00
        67         2       -7.616758e-01
        68         2       -1.318367e+00
        69         2        3.244715e-01
        70         2       -5.673745e-01
        71         2        2.309164e-01
        72         2        8.364137e-01
        73         2        4.224211e-01
        74         2        2.876878e-01
        75         2       -1.350525e+00
        76         2       -4.101096e-01
        77         2        1.188308e+00
        78         2        3.097287e-01
        79         2        1.427703e+00
        80         2       -1.858451e+00
        81         2        1.180203e+00
        82         2       -3.848134e-01
        83         2        1.688266e+00
        84         2       -6.716431e-01
        85         2        5.239836e-01
        86         2       -3.248425e-01
        87         2        5.250604e-01
        88         2       -2.285423e-01
        89         2       -2.233047e-01
        90         2       -6.707182e-02
        91         2        1.161729e+00
        92         2       -2.113417e+00
        93         2       -2.063618e+00
        94         2        8.541018e-01
        95         2        1.303735e+00
        96         2       -4.400218e-01
        97         2        1.659356e-01
        98         2       -1.452127e+00
        99         2        1.794587e+00
       100         2       -7.742831e-01
         1         3        2.232701e-01
         2         3        1.187985e+00
         3         3        5.817352e-01
         4         3        1.528307e+00
         5         3       -3.772756e-02
         6         3        3.772373e-01
         7         3       -9.579403e-01
         8         3        1.195844e+00
         9         3       -4.977802e-01
        10         3       -3.777256e-01
        11         3       -2.474730e+00
        12         3        9.548730e-03
        13         3       -1.253021e+00
        14         3       -7.243045e-01
        15         3       -1.039256e+00
        16         3        4.354287e-01
        17         3        3.180936e-01
        18         3       -2.425787e-01
        19         3       -5.448547e-01
        20         3        1.962462e-01
        21         3        4.379130e-01
        22         3       -2.357368e+00
        23         3        4.685125e-01
        24         3       -5.880695e-01
        25         3        4.772733e-02
        26         3       -1.858220e+00
        27         3       -5.380158e-01
        28         3        9.376027e-01
        29         3        1.022942e-01
        30         3       -1.822621e+00
        31         3        7.236473e-01
        32         3       -9.025260e-01
        33         3        5.238635e-01
        34         3        7.760950e-01
        35         3        1.425228e+00
        36         3        6.326505e-01
        37         3        1.950551e-01
        38         3        2.124129e+00
        39         3        2.684677e-01
        40         3       -5.423030e-01
        41         3       -4.562619e-01
        42         3       -6.769481e-01
        43         3        1.205114e+00
        44         3        5.069247e-01
        45         3        7.240946e-01
        46         3       -2.708298e+00
        47         3        2.725874e-01
        48         3       -1.053646e+00
        49         3        1.974857e-03
        50         3        1.694405e+00
        51         3       -2.962148e-01
        52         3       -3.985511e-01
        53         3       -2.117753e+00
        54         3       -1.041056e-01
        55         3        2.706118e-01
        56         3        2.237045e+00
        57         3       -1.710002e+00
        58         3       -1.906549e-01
        59         3        9.251065e-01
        60         3       -5.209550e-01
        61         3       -1.463809e-01
        62         3       -1.275583e+00
        63         3       -3.946104e-01
        64         3        2.856565e-01
        65         3        5.433689e-01
        66         3        7.426547e-02
        67         3        3.997513e-01
        68         3       -6.845046e-01
        69         3       -9.323887e-01
        70         3        1.977530e-01
        71         3       -6.270711e-01
        72         3       -3.596847e-02
        73         3        5.092102e-01
        74         3        3.142004e-01
        75         3        1.426077e+00
        76         3       -1.629473e-01
        77         3        7.848136e-01
        78         3       -6.023718e-01
        79         3       -1.622494e+00
        80         3        2.840997e+00
        81         3        9.775632e-02
        82         3       -1.815711e-01
        83         3       -1.587303e-01
        84         3       -4.275536e-01
        85         3       -1.382677e+00
        86         3       -1.608155e+00
        87         3       -2.986025e-01
        88         3       -1.248549e+00
        89         3       -3.460262e-01
        90         3        9.969236e-01
        91         3       -1.825452e-01
        92         3       -3.803121e-02
        93         3        1.022007e+00
        94         3        7.808747e-01
        95         3       -5.596193e-01
        96         3       -2.576960e-01
        97         3        6.503600e-01
        98         3       -1.674363e+00
        99         3       -1.161101e-01
       100         3        1.076162e+00
         1         4        8.706717e-01
         2         4        6.645552e-01
         3         4        2.319240e+00
         4         4       -8.497151e-02
         5         4        6.252948e-01
         6         4        3.652681e-01
         7         4       -1.011670e+00
         8         4       -2.851113e-01
         9         4        1.871480e-01
        10         4       -7.347118e-01
        11         4        3.992777e-01
        12         4       -5.392686e-01
        13         4        1.383187e+00
        14         4        7.778806e-01
        15         4       -8.794867e-01
        16         4       -9.667999e-02
        17         4        1.751165e-01
        18         4        2.084847e+00
        19         4       -9.745470e-02
        20         4       -3.698158e-01
        21         4       -4.403822e-01
        22         4       -1.096733e+00
        23         4       -1.148877e+00
        24         4       -1.611499e+00
        25         4       -1.006210e-01
        26         4       -5.663645e-01
        27         4       -2.014938e-01
        28         4       -5.933065e-01
        29         4        1.065552e+00
        30         4        5.072460e-01
        31         4        1.091089e+00
        32         4       -5.295959e-01
        33         4        1.846822e+00
        34         4       -2.228665e-01
        35         4        8.201449e-02
        36         4        1.340979e+00
        37         4        2.052367e+00
        38         4        1.068207e+00
        39         4       -5.073254e-02
        40         4       -4.877106e-01
        41         4       -3.228573e-02
        42         4       -1.030755e+00
        43         4       -5.919297e-02
        44         4        3.638108e-02
        45         4        2.422244e-01
        46         4        1.497774e-01
        47         4        6.452605e-01
        48         4        1.909280e+00
        49         4       -1.008860e+00
        50         4       -2.158243e-01
        51         4        2.877473e-01
        52         4        1.111019e+00
        53         4       -1.375081e+00
        54         4        4.686122e-02
        55         4        4.808794e-01
        56         4        1.699076e+00
        57         4        8.598147e-01
        58         4       -8.207267e-01
        59         4       -2.271447e-01
        60         4        1.129117e-01
        61         4       -6.521054e-01
        62         4       -1.502253e+00
        63         4       -5.942067e-01
        64         4        8.317798e-01
        65         4        6.868551e-01
        66         4        1.297909e+00
        67         4        8.879457e-01
        68         4        1.022866e-01
        69         4       -1.141454e+00
        70         4       -8.284286e-01
        71         4       -1.106843e+00
        72         4       -5.886582e-03
        73         4        3.773364e-01
        74         4       -5.330468e-02
        75         4        1.012100e-01
        76         4        4.930467e-01
        77         4       -1.548843e-01
        78         4        1.482096e+00
        79         4        7.971258e-01
        80         4        1.370691e+00
        81         4        4.205877e-01
        82         4        3.543427e-01
        83         4       -7.910472e-01
        84         4        4.758580e-01
        85         4       -9.536137e-01
        86         4        6.900460e-01
        87         4       -1.261885e-01
        88         4        1.027937e+00
        89         4       -7.784381e-02
        90         4       -4.382439e-01
        91         4       -4.044247e-01
        92         4       -1.218581e+00
        93         4        2.732674e-01
        94         4       -5.658674e-01
        95         4        6.142364e-01
        96         4        1.821794e+00
        97         4        2.277489e+00
        98         4       -5.057444e-01
        99         4        2.868393e-01
       100         4       -6.182312e-01
         1         5        6.613219e-01
         2         5        3.417218e-01
         3         5        1.414950e-01
         4         5       -2.704085e-01
         5         5       -1.749322e-01
         6         5       -2.632303e-01
         7         5       -6.588096e-01
         8         5        2.199879e+00
         9         5       -7.800637e-03
        10         5        4.048909e-01
        11         5       -1.560811e+00
        12         5       -2.171919e-01
        13         5        8.016553e-02
        14         5        6.483405e-01
        15         5       -2.202441e+00
        16         5       -5.373512e-01
        17         5       -8.991841e-02
        18         5       -1.796424e+00
        19         5        2.598220e+00
        20         5       -7.741907e-01
        21         5        8.472411e-01
        22         5        6.861788e-01
        23         5       -2.065841e-01
        24         5       -1.405685e-02
        25         5        1.431148e+00
        26         5        7.933242e-01
        27         5        5.087139e-01
        28         5        2.355308e-01
        29         5        9.650579e-02
        30         5       -5.922389e-01
        31         5       -6.071237e-01
        32         5        1.580986e+00
        33         5        8.838486e-02
        34         5       -1.027173e+00
        35         5       -1.174179e+00
        36         5        8.418731e-01
        37         5        6.391766e-02
        38         5        8.309515e-01
        39         5       -9.709474e-01
        40         5        2.596893e-02
        41         5       -3.610202e-01
        42         5       -2.768533e-01
        43         5       -1.224204e+00
        44         5       -6.155345e-01
        45         5        1.758340e+00
        46         5       -1.085307e+00
        47         5       -6.576707e-01
        48         5        7.479897e-01
        49         5        2.129265e+00
        50         5       -7.571252e-01
        51         5       -1.603177e+00
        52         5       -5.527309e-01
        53         5       -4.796332e-01
        54         5       -2.363001e+00
        55         5        2.725569e-01
        56         5       -7.224214e-01
        57         5       -8.284607e-01
        58         5       -1.986943e+00
        59         5        1.444211e+00
        60         5        7.552414e-03
        61         5       -1.275184e-01
        62         5        1.156178e+00
        63         5       -1.180138e-01
        64         5        3.971973e-01
        65         5        1.456847e+00
        66         5        8.288019e-01
        67         5        1.032032e+00
        68         5        3.855191e-01
        69         5        1.511184e+00
        70         5       -1.393488e-01
        71         5       -1.351430e+00
        72         5       -1.167760e+00
        73         5        8.180303e-01
        74         5       -1.179610e+00
        75         5       -4.681738e-01
        76         5        5.542712e-01
        77         5        1.962830e-01
        78         5       -5.417639e-01
        79         5       -9.836244e-01
        80         5       -1.482551e-01
        81         5        8.585760e-01
        82         5        1.854190e+00
        83         5        7.113673e-02
        84         5        1.505752e+00
        85         5        4.565105e-01
        86         5       -5.869210e-01
        87         5        8.585532e-01
        88         5        1.115855e+00
        89         5        1.449154e+00
        90         5       -9.619041e-01
        91         5       -1.535349e-01
        92         5        9.661653e-01
        93         5        2.062178e+00
        94         5        2.392668e+00
        95         5       -1.765721e+00
        96         5       -6.577271e-01
        97         5        2.578803e-01
        98         5       -3.497553e-01
        99         5       -1.658257e+00
       100         5        3.391879e-01
;
param X_Original:=
    1        4.424047e-01
    2       -3.229120e-01
    3       -1.047453e+00
    4        3.268099e-01
    5        1.405087e+00
    6       -1.007053e+00
    7       -4.571806e-01
    8        7.204165e-01
    9        3.306794e-01
   10        8.887256e-01
   11       -1.121868e-01
   12       -1.194021e-03
   13        1.604586e+00
   14       -8.987811e-01
   15        1.826105e+00
   16       -9.765064e-01
   17       -6.670257e-01
   18       -3.406110e-01
   19        9.210607e-01
   20        2.282784e+00
   21       -8.100835e-01
   22       -7.158706e-01
   23        7.781924e-01
   24       -9.110412e-01
   25        7.136128e-01
   26        3.329193e-01
   27        1.313794e-02
   28       -1.999733e+00
   29        1.448110e+00
   30        7.747490e-01
   31       -2.576285e+00
   32       -4.816335e-01
   33       -6.359726e-01
   34        1.327033e+00
   35       -6.938796e-01
   36        2.089625e-01
   37       -1.005381e+00
   38        4.256099e-01
   39        4.910250e-01
   40        3.630565e-02
   41        2.072716e-01
   42       -1.295970e-01
   43       -8.163902e-01
   44        1.509383e+00
   45        1.784879e+00
   46        5.308952e-01
   47       -6.726355e-01
   48       -1.085924e+00
   49       -4.975018e-01
   50       -3.424164e-01
   51        5.950542e-01
   52        1.932626e+00
   53       -8.715657e-01
   54       -1.421289e+00
   55       -1.733969e+00
   56        7.078661e-01
   57       -7.103856e-03
   58        6.103083e-01
   59        1.767786e+00
   60        2.014789e-02
   61        1.235026e+00
   62       -3.238485e-01
   63        4.965365e-01
   64       -1.984339e-01
   65       -7.522667e-01
   66       -1.590549e+00
   67        1.470686e+00
   68        6.279706e-01
   69       -1.498668e-01
   70        1.353113e-01
   71       -2.193944e-01
   72        1.312599e+00
   73        8.501745e-01
   74        7.878245e-01
   75       -1.018317e+00
   76       -1.168664e+00
   77        5.146622e-02
   78       -2.187955e-01
   79        9.104858e-01
   80        8.949586e-01
   81        1.036422e+00
   82        1.383970e+00
   83        1.000191e+00
   84        5.210796e-01
   85        1.236249e+00
   86       -1.035997e-01
   87        4.870816e-02
   88       -2.343591e-01
   89        2.143343e+00
   90        1.576445e+00
   91        4.570470e-01
   92        1.269350e+00
   93       -6.220250e-01
   94       -1.169197e+00
   95        1.559091e+00
   96       -5.546367e-01
   97       -7.797151e-01
   98        1.193805e+00
   99       -4.257990e-01
  100        1.190845e+00
;
param outliervec_original :=
    1    0
    2    0
    3    1
    4    1
    5    0
    6    1
    7    0
    8    1
    9    1
   10    1
   11    1
   12    1
   13    1
   14    1
   15    1
   16    1
   17    1
   18    1
   19    1
   20    1
   21    1
   22    1
   23    1
   24    0
   25    1
   26    1
   27    1
   28    1
   29    1
   30    1
   31    1
   32    1
   33    1
   34    1
   35    1
   36    1
   37    1
   38    1
   39    1
   40    1
   41    1
   42    1
   43    1
   44    1
   45    0
   46    1
   47    1
   48    1
   49    1
   50    1
   51    1
   52    1
   53    1
   54    1
   55    1
   56    1
   57    1
   58    1
   59    0
   60    1
   61    1
   62    1
   63    1
   64    1
   65    1
   66    1
   67    0
   68    0
   69    0
   70    1
   71    1
   72    1
   73    1
   74    1
   75    1
   76    1
   77    1
   78    1
   79    1
   80    1
   81    0
   82    0
   83    1
   84    1
   85    1
   86    0
   87    1
   88    1
   89    1
   90    1
   91    1
   92    1
   93    1
   94    1
   95    1
   96    1
   97    1
   98    1
   99    1
  100    0
;
param d:= 57;
param r:=5;
param p:=0.860000;
param M:=1000;
param U:=
         1         1       -1.504132e+00
         2         1       -3.044571e-01
         3         1       -8.016729e-01
         4         1       -9.171194e-02
         5         1       -6.066403e-01
         6         1        6.518407e-01
         7         1       -5.428084e-01
         8         1        1.158616e+00
         9         1       -1.725793e-01
        10         1        1.406262e+00
        11         1       -1.090752e+00
        12         1        1.227518e+00
        13         1        5.107024e-01
        14         1       -6.267092e-01
        15         1        6.648128e-01
        16         1        1.854607e-01
        17         1       -1.023544e+00
        18         1        2.380116e-01
        19         1        4.783846e-01
        20         1       -1.352429e+00
        21         1        3.619813e-01
        22         1        5.557267e-01
        23         1       -1.023093e+00
        24         1       -3.934900e-01
        25         1       -3.645139e-01
        26         1       -1.418184e-01
        27         1       -1.200506e+00
        28         1        7.948308e-01
        29         1       -3.067123e-01
        30         1        5.797277e-01
        31         1        8.122753e-02
        32         1        1.106986e+00
        33         1       -4.212194e-02
        34         1       -2.338174e-01
        35         1        6.742129e-01
        36         1        3.553112e-01
        37         1        1.484364e+00
        38         1        2.761938e-01
        39         1       -1.114466e+00
        40         1       -6.318028e-01
        41         1        1.409744e+00
        42         1        1.005464e+00
        43         1        1.366164e-01
        44         1       -1.072572e+00
        45         1       -2.060534e+00
        46         1       -7.756356e-01
        47         1        4.537916e-01
        48         1       -2.522300e-01
        49         1        1.000080e-01
        50         1       -1.744377e-01
        51         1       -2.138488e+00
        52         1       -2.268967e-01
        53         1       -1.176012e-01
        54         1        6.798566e-01
        55         1       -2.957306e-01
        56         1        5.203235e-01
        57         1       -1.567080e+00
         1         2       -1.675706e+00
         2         2        1.599308e+00
         3         2       -5.054160e-02
         4         2       -5.860694e-01
         5         2        8.962315e-03
         6         2       -4.755354e-02
         7         2       -1.833903e-01
         8         2       -2.179623e+00
         9         2       -7.748984e-01
        10         2        9.161199e-01
        11         2       -1.769883e+00
        12         2       -6.700027e-01
        13         2       -5.052495e-01
        14         2       -2.435678e-01
        15         2        1.248941e-01
        16         2        1.116491e+00
        17         2       -8.235364e-01
        18         2        1.057438e+00
        19         2       -2.548659e-01
        20         2        2.162092e+00
        21         2       -6.902870e-01
        22         2        9.348801e-01
        23         2        8.514239e-01
        24         2        3.586669e-01
        25         2       -3.772397e-01
        26         2        1.110482e+00
        27         2        9.341484e-01
        28         2       -1.377230e-01
        29         2        7.849869e-01
        30         2        5.952927e-03
        31         2        2.307506e-01
        32         2        1.254201e+00
        33         2        9.236385e-01
        34         2        7.190225e-01
        35         2        1.240877e+00
        36         2       -1.318367e+00
        37         2        3.244715e-01
        38         2       -5.673745e-01
        39         2        8.364137e-01
        40         2        2.876878e-01
        41         2       -1.350525e+00
        42         2       -4.101096e-01
        43         2        1.188308e+00
        44         2        3.097287e-01
        45         2        1.180203e+00
        46         2        1.688266e+00
        47         2        5.239836e-01
        48         2       -3.248425e-01
        49         2        5.250604e-01
        50         2       -2.285423e-01
        51         2       -2.233047e-01
        52         2        1.161729e+00
        53         2       -2.113417e+00
        54         2        8.541018e-01
        55         2       -1.452127e+00
        56         2        1.794587e+00
        57         2       -7.742831e-01
         1         3       -3.772756e-02
         2         3        3.772373e-01
         3         3        1.195844e+00
         4         3       -4.977802e-01
         5         3       -3.777256e-01
         6         3       -2.474730e+00
         7         3       -1.039256e+00
         8         3        4.354287e-01
         9         3       -2.425787e-01
        10         3        4.379130e-01
        11         3        4.772733e-02
        12         3       -1.858220e+00
        13         3       -5.380158e-01
        14         3       -1.822621e+00
        15         3        7.236473e-01
        16         3       -9.025260e-01
        17         3        5.238635e-01
        18         3        1.425228e+00
        19         3        1.950551e-01
        20         3        2.684677e-01
        21         3       -5.423030e-01
        22         3       -4.562619e-01
        23         3        5.069247e-01
        24         3       -2.708298e+00
        25         3        2.725874e-01
        26         3       -1.053646e+00
        27         3       -2.962148e-01
        28         3        2.706118e-01
        29         3       -1.710002e+00
        30         3       -1.906549e-01
        31         3       -1.463809e-01
        32         3       -1.275583e+00
        33         3       -3.946104e-01
        34         3        5.433689e-01
        35         3        7.426547e-02
        36         3       -6.845046e-01
        37         3       -9.323887e-01
        38         3        1.977530e-01
        39         3       -3.596847e-02
        40         3        3.142004e-01
        41         3        1.426077e+00
        42         3       -1.629473e-01
        43         3        7.848136e-01
        44         3       -6.023718e-01
        45         3        9.775632e-02
        46         3       -1.587303e-01
        47         3       -1.382677e+00
        48         3       -1.608155e+00
        49         3       -2.986025e-01
        50         3       -1.248549e+00
        51         3       -3.460262e-01
        52         3       -1.825452e-01
        53         3       -3.803121e-02
        54         3        7.808747e-01
        55         3       -1.674363e+00
        56         3       -1.161101e-01
        57         3        1.076162e+00
         1         4        6.252948e-01
         2         4        3.652681e-01
         3         4       -2.851113e-01
         4         4        1.871480e-01
         5         4       -7.347118e-01
         6         4        3.992777e-01
         7         4       -8.794867e-01
         8         4       -9.667999e-02
         9         4        2.084847e+00
        10         4       -4.403822e-01
        11         4       -1.006210e-01
        12         4       -5.663645e-01
        13         4       -2.014938e-01
        14         4        5.072460e-01
        15         4        1.091089e+00
        16         4       -5.295959e-01
        17         4        1.846822e+00
        18         4        8.201449e-02
        19         4        2.052367e+00
        20         4       -5.073254e-02
        21         4       -4.877106e-01
        22         4       -3.228573e-02
        23         4        3.638108e-02
        24         4        1.497774e-01
        25         4        6.452605e-01
        26         4        1.909280e+00
        27         4        2.877473e-01
        28         4        4.808794e-01
        29         4        8.598147e-01
        30         4       -8.207267e-01
        31         4       -6.521054e-01
        32         4       -1.502253e+00
        33         4       -5.942067e-01
        34         4        6.868551e-01
        35         4        1.297909e+00
        36         4        1.022866e-01
        37         4       -1.141454e+00
        38         4       -8.284286e-01
        39         4       -5.886582e-03
        40         4       -5.330468e-02
        41         4        1.012100e-01
        42         4        4.930467e-01
        43         4       -1.548843e-01
        44         4        1.482096e+00
        45         4        4.205877e-01
        46         4       -7.910472e-01
        47         4       -9.536137e-01
        48         4        6.900460e-01
        49         4       -1.261885e-01
        50         4        1.027937e+00
        51         4       -7.784381e-02
        52         4       -4.044247e-01
        53         4       -1.218581e+00
        54         4       -5.658674e-01
        55         4       -5.057444e-01
        56         4        2.868393e-01
        57         4       -6.182312e-01
         1         5       -1.749322e-01
         2         5       -2.632303e-01
         3         5        2.199879e+00
         4         5       -7.800637e-03
         5         5        4.048909e-01
         6         5       -1.560811e+00
         7         5       -2.202441e+00
         8         5       -5.373512e-01
         9         5       -1.796424e+00
        10         5        8.472411e-01
        11         5        1.431148e+00
        12         5        7.933242e-01
        13         5        5.087139e-01
        14         5       -5.922389e-01
        15         5       -6.071237e-01
        16         5        1.580986e+00
        17         5        8.838486e-02
        18         5       -1.174179e+00
        19         5        6.391766e-02
        20         5       -9.709474e-01
        21         5        2.596893e-02
        22         5       -3.610202e-01
        23         5       -6.155345e-01
        24         5       -1.085307e+00
        25         5       -6.576707e-01
        26         5        7.479897e-01
        27         5       -1.603177e+00
        28         5        2.725569e-01
        29         5       -8.284607e-01
        30         5       -1.986943e+00
        31         5       -1.275184e-01
        32         5        1.156178e+00
        33         5       -1.180138e-01
        34         5        1.456847e+00
        35         5        8.288019e-01
        36         5        3.855191e-01
        37         5        1.511184e+00
        38         5       -1.393488e-01
        39         5       -1.167760e+00
        40         5       -1.179610e+00
        41         5       -4.681738e-01
        42         5        5.542712e-01
        43         5        1.962830e-01
        44         5       -5.417639e-01
        45         5        8.585760e-01
        46         5        7.113673e-02
        47         5        4.565105e-01
        48         5       -5.869210e-01
        49         5        8.585532e-01
        50         5        1.115855e+00
        51         5        1.449154e+00
        52         5       -1.535349e-01
        53         5        9.661653e-01
        54         5        2.392668e+00
        55         5       -3.497553e-01
        56         5       -1.658257e+00
        57         5        3.391879e-01
;

param theta:=
    1       -4.377330e-01
    2       -4.332350e-01
    3        8.087104e-02
    4        2.162008e-01
    5        6.370152e-01
;
param X_true:=
    1        1.405087e+00
    2       -6.178080e-01
    3        1.809239e+00
    4        2.892876e-01
    5        3.301930e-01
    6       -1.372800e+00
    7       -1.360123e+00
    8        1.091348e-01
    9       -3.019645e-01
   10       -5.325535e-01
   11        2.138002e+00
   12       -1.442161e-02
   13        2.323259e-01
   14       -3.514207e-02
   15       -4.374495e-01
   16        2.547399e-01
   17        1.302776e+00
   18       -1.177283e+00
   19        4.012264e-01
   20       -9.524565e-01
   21        7.847888e-03
   22       -9.221367e-01
   23       -2.642688e-01
   24       -8.611417e-01
   25        6.559728e-02
   26        3.850384e-01
   27       -8.621966e-01
   28        1.121682e-02
   29       -6.859648e-01
   30       -1.714918e+00
   31       -3.695801e-01
   32       -7.193708e-01
   33       -6.172715e-01
   34        9.113188e-01
   35       -1.814243e-02
   36        6.279706e-01
   37       -1.498668e-01
   38       -1.269745e-01
   39       -6.225872e-01
   40       -5.856195e-01
   41       -1.930204e-01
   42        1.840478e-01
   43       -4.196004e-01
   44        2.619192e-01
   45        1.036422e+00
   46       -5.304410e-01
   47       -4.528341e-01
   48       -1.035997e-01
   49        2.242298e-01
   50        1.007456e+00
   51        1.911150e+00
   52       -6.039850e-01
   53        1.316012e+00
   54        7.973523e-01
   55        2.910138e-01
   56       -2.008950e+00
   57        1.190845e+00
;
param X:=
    1        1.405087e+00
    2       -1.007053e+00
    3        7.204165e-01
    4        3.306794e-01
    5        8.887256e-01
    6       -1.121868e-01
    7        1.826105e+00
    8       -9.765064e-01
    9       -3.406110e-01
   10       -8.100835e-01
   11        7.136128e-01
   12        3.329193e-01
   13        1.313794e-02
   14        7.747490e-01
   15       -2.576285e+00
   16       -4.816335e-01
   17       -6.359726e-01
   18       -6.938796e-01
   19       -1.005381e+00
   20        4.910250e-01
   21        3.630565e-02
   22        2.072716e-01
   23        1.509383e+00
   24        5.308952e-01
   25       -6.726355e-01
   26       -1.085924e+00
   27        5.950542e-01
   28       -1.733969e+00
   29       -7.103856e-03
   30        6.103083e-01
   31        1.235026e+00
   32       -3.238485e-01
   33        4.965365e-01
   34       -7.522667e-01
   35       -1.590549e+00
   36        6.279706e-01
   37       -1.498668e-01
   38        1.353113e-01
   39        1.312599e+00
   40        7.878245e-01
   41       -1.018317e+00
   42       -1.168664e+00
   43        5.146622e-02
   44       -2.187955e-01
   45        1.036422e+00
   46        1.000191e+00
   47        1.236249e+00
   48       -1.035997e-01
   49        4.870816e-02
   50       -2.343591e-01
   51        2.143343e+00
   52        4.570470e-01
   53        1.269350e+00
   54       -1.169197e+00
   55        1.193805e+00
   56       -4.257990e-01
   57        1.190845e+00
;
param outliervec:=
    1    0
    2    1
    3    1
    4    1
    5    1
    6    1
    7    1
    8    1
    9    1
   10    1
   11    1
   12    1
   13    1
   14    1
   15    1
   16    1
   17    1
   18    1
   19    1
   20    1
   21    1
   22    1
   23    1
   24    1
   25    1
   26    1
   27    1
   28    1
   29    1
   30    1
   31    1
   32    1
   33    1
   34    1
   35    1
   36    0
   37    0
   38    1
   39    1
   40    1
   41    1
   42    1
   43    1
   44    1
   45    0
   46    1
   47    1
   48    0
   49    1
   50    1
   51    1
   52    1
   53    1
   54    1
   55    1
   56    1
   57    0
; 
param greedy_time :=         4.767974e-01
;